Maximize
F - ff - gg

Subject to
F - f1 - f2 - f3 - f4 = 0
f1 - 30X1 - 40X8 - 30X16 - 40X93 - 30X122 - 30X136 - 40X149 - 40X207 = 0
f2 - 15.0Y1 - 15.0Y16 - 20.0Y93 - 20.0Y149 - 20.0Y207 = 0
f3 - 12.0Z8 - 9.0Z122 - 9.0Z136 = 0
f4 - 8.0V8 - 6.0V122 - 6.0V136 = 0

ff - 0.008132s1 - 0.008132s8 - 0.008132s16 - 0.008132s93 - 0.008132s122 - 0.008132s136 - 0.008132s149 - 0.008132s207 
- 0.008132t1 - 0.008132t16 - 0.008132t93 - 0.008132t149 - 0.008132t207 
- 0.008132u8 - 0.008132u122 - 0.008132u136 
- 0.008132r8 - 0.008132r122 - 0.008132r136 
= 0
gg - 2.076654Y1 - 0.948729Y16 - 0.979910Y93 - 1.455666Y149 - 2.362156Y207 
- 3.260292Z8 - 3.169461Z122 - 3.642478Z136 
- 2.696292V8 - 2.605461V122 - 3.078478V136 = 0

n1 - X1 - X8 - X16 - X93 - X122 - X136 - X149 - X207 = 0
n2 - Y1 - Y16 - Y93 - Y149 - Y207 = 0
n3 - Z8 - Z122 - Z136 = 0
n4 - V8 - V122 - V136 = 0

X1 + Y1 <= 1
X16 + Y16 <= 1
X93 + Y93 <= 1
X149 + Y149 <= 1
X207 + Y207 <= 1

X8 + Z8 <= 1
X122 + Z122 <= 1
X136 + Z136 <= 1

X8 + V8 <= 1
X122 + V122 <= 1
X136 + V136 <= 1

x132x16x1 + x132x122x1 + x132x149x1 
+ y132y16y1 + y132y149y1 
<= 2


x52x16x1 + x52x122x1 + x52x149x1 
+ y52y16y1 + y52y149y1 
<= 1


x147x16x1 + x147x122x1 + x147x149x1 
+ y147y16y1 + y147y149y1 
<= 1
x18x16x1 + x18x122x1 + x18x149x1 
+ y18y16y1 + y18y149y1 
<= 2


x101x8x2 + x101x16x2 + x101x93x2 + x101x136x2 + x101x207x2 
+ y101y16y2 + y101y93y2 + y101y207y2 
<= 2


x113x8x2 + x113x16x2 + x113x93x2 + x113x136x2 + x113x207x2 
+ y113y16y2 + y113y93y2 + y113y207y2 
<= 1
x114x8x2 + x114x16x2 + x114x93x2 + x114x136x2 + x114x207x2 
+ y114y16y2 + y114y93y2 + y114y207y2 
<= 1


x174x8x2 + x174x16x2 + x174x93x2 + x174x136x2 + x174x207x2 
+ y174y16y2 + y174y93y2 + y174y207y2 
<= 2


x123x1x3 + x123x8x3 + x123x136x3 
+ y123y1y3 
<= 2
x52x1x3 + x52x8x3 + x52x136x3 
+ y52y1y3 
<= 1
x113x1x3 + x113x8x3 + x113x136x3 
+ y113y1y3 
<= 1
x114x1x3 + x114x8x3 + x114x136x3 
+ y114y1y3 
<= 1
x147x1x3 + x147x8x3 + x147x136x3 
+ y147y1y3 
<= 1


x132x16x1 + x132x122x1 + x132x149x1 
+ z132z122z1 
<= 2


x52x16x1 + x52x122x1 + x52x149x1 
+ z52z122z1 
<= 1


x147x16x1 + x147x122x1 + x147x149x1 
+ z147z122z1 
<= 1
x18x16x1 + x18x122x1 + x18x149x1 
+ z18z122z1 
<= 2


x101x8x2 + x101x16x2 + x101x93x2 + x101x136x2 + x101x207x2 
+ z101z8z2 + z101z136z2 
<= 2


x113x8x2 + x113x16x2 + x113x93x2 + x113x136x2 + x113x207x2 
+ z113z8z2 + z113z136z2 
<= 1
x114x8x2 + x114x16x2 + x114x93x2 + x114x136x2 + x114x207x2 
+ z114z8z2 + z114z136z2 
<= 1


x174x8x2 + x174x16x2 + x174x93x2 + x174x136x2 + x174x207x2 
+ z174z8z2 + z174z136z2 
<= 2


x123x1x3 + x123x8x3 + x123x136x3 
+ z123z8z3 + z123z136z3 
<= 2
x52x1x3 + x52x8x3 + x52x136x3 
+ z52z8z3 + z52z136z3 
<= 1
x113x1x3 + x113x8x3 + x113x136x3 
+ z113z8z3 + z113z136z3 
<= 1
x114x1x3 + x114x8x3 + x114x136x3 
+ z114z8z3 + z114z136z3 
<= 1
x147x1x3 + x147x8x3 + x147x136x3 
+ z147z8z3 + z147z136z3 
<= 1


x132x16x1 + x132x122x1 + x132x149x1 
+ v132v122v1 
<= 2


x52x16x1 + x52x122x1 + x52x149x1 
+ v52v122v1 
<= 1


x147x16x1 + x147x122x1 + x147x149x1 
+ v147v122v1 
<= 1
x18x16x1 + x18x122x1 + x18x149x1 
+ v18v122v1 
<= 2


x101x8x2 + x101x16x2 + x101x93x2 + x101x136x2 + x101x207x2 
+ v101v8v2 + v101v136v2 
<= 2


x113x8x2 + x113x16x2 + x113x93x2 + x113x136x2 + x113x207x2 
+ v113v8v2 + v113v136v2 
<= 1
x114x8x2 + x114x16x2 + x114x93x2 + x114x136x2 + x114x207x2 
+ v114v8v2 + v114v136v2 
<= 1


x174x8x2 + x174x16x2 + x174x93x2 + x174x136x2 + x174x207x2 
+ v174v8v2 + v174v136v2 
<= 2


x123x1x3 + x123x8x3 + x123x136x3 
+ v123v8v3 + v123v136v3 
<= 2
x52x1x3 + x52x8x3 + x52x136x3 
+ v52v8v3 + v52v136v3 
<= 1
x113x1x3 + x113x8x3 + x113x136x3 
+ v113v8v3 + v113v136v3 
<= 1
x114x1x3 + x114x8x3 + x114x136x3 
+ v114v8v3 + v114v136v3 
<= 1
x147x1x3 + x147x8x3 + x147x136x3 
+ v147v8v3 + v147v136v3 
<= 1


x123x1x3 + x52x1x3 + x113x1x3 + x114x1x3 + x147x1x3 
+ y123y1y3 + y52y1y3 + y113y1y3 + y114y1y3 + y147y1y3 + y8y1y3 + y136y1y3 
= 0

x101x8x2 + x113x8x2 + x114x8x2 + x174x8x2 + x207x8x2 
- y8y16y2 - y8y93y2 - y8y207y2 - y8y0y2
= 0
x123x8x3 + x52x8x3 + x113x8x3 + x114x8x3 + x147x8x3 
- y8y1y3 - y8y0y3
= 0

x132x16x1 + x52x16x1 + x147x16x1 + x18x16x1 + x149x16x1 
+ y132y16y1 + y52y16y1 + y147y16y1 + y18y16y1 + y122y16y1 + y149y16y1 
= 0
x101x16x2 + x113x16x2 + x114x16x2 + x174x16x2 + x93x16x2 + x136x16x2 + x207x16x2 
+ y101y16y2 + y113y16y2 + y114y16y2 + y174y16y2 + y8y16y2 + y93y16y2 + y136y16y2 + y207y16y2 
= 0

x101x93x2 + x113x93x2 + x114x93x2 + x174x93x2 + x207x93x2 
+ y101y93y2 + y113y93y2 + y114y93y2 + y174y93y2 + y8y93y2 + y136y93y2 + y207y93y2 
- x93x16x2 
- y93y16y2 - y93y0y2
= 0

x132x122x1 + x52x122x1 + x147x122x1 + x18x122x1 
- y122y16y1 - y122y149y1 - y122y0y1
= 0

x101x136x2 + x113x136x2 + x114x136x2 + x174x136x2 
- x136x16x2 
- y136y16y2 - y136y93y2 - y136y207y2 - y136y0y2
= 0
x123x136x3 + x52x136x3 + x113x136x3 + x114x136x3 + x147x136x3 
- y136y1y3 - y136y0y3
= 0

x132x149x1 + x52x149x1 + x147x149x1 + x18x149x1 
+ y132y149y1 + y52y149y1 + y147y149y1 + y18y149y1 + y122y149y1 
- x149x16x1 
- y149y16y1 - y149y0y1
= 0

x101x207x2 + x113x207x2 + x114x207x2 + x174x207x2 
+ y101y207y2 + y113y207y2 + y114y207y2 + y174y207y2 + y8y207y2 + y136y207y2 
- x207x8x2 - x207x16x2 - x207x93x2 
- y207y16y2 - y207y93y2 - y207y0y2
= 0


x123x1x3 + x52x1x3 + x113x1x3 + x114x1x3 + x147x1x3 
- z1z8z3 - z1z136z3 - z1z0z3
= 0

x101x8x2 + x113x8x2 + x114x8x2 + x174x8x2 + x207x8x2 
+ z101z8z2 + z113z8z2 + z114z8z2 + z174z8z2 + z16z8z2 + z93z8z2 + z136z8z2 + z207z8z2 
= 0
x123x8x3 + x52x8x3 + x113x8x3 + x114x8x3 + x147x8x3 
+ z123z8z3 + z52z8z3 + z113z8z3 + z114z8z3 + z147z8z3 + z1z8z3 + z136z8z3 
= 0

x132x16x1 + x52x16x1 + x147x16x1 + x18x16x1 + x149x16x1 
- z16z122z1 - z16z0z1
= 0
x101x16x2 + x113x16x2 + x114x16x2 + x174x16x2 + x93x16x2 + x136x16x2 + x207x16x2 
- z16z8z2 - z16z136z2 - z16z0z2
= 0

x101x93x2 + x113x93x2 + x114x93x2 + x174x93x2 + x207x93x2 
- x93x16x2 
- z93z8z2 - z93z136z2 - z93z0z2
= 0

x132x122x1 + x52x122x1 + x147x122x1 + x18x122x1 
+ z132z122z1 + z52z122z1 + z147z122z1 + z18z122z1 + z16z122z1 + z149z122z1 
= 0

x101x136x2 + x113x136x2 + x114x136x2 + x174x136x2 
+ z101z136z2 + z113z136z2 + z114z136z2 + z174z136z2 + z16z136z2 + z93z136z2 + z207z136z2 
- x136x16x2 
- z136z8z2 - z136z0z2
= 0
x123x136x3 + x52x136x3 + x113x136x3 + x114x136x3 + x147x136x3 
+ z123z136z3 + z52z136z3 + z113z136z3 + z114z136z3 + z147z136z3 + z1z136z3 
- z136z8z3 - z136z0z3
= 0

x132x149x1 + x52x149x1 + x147x149x1 + x18x149x1 
- x149x16x1 
- z149z122z1 - z149z0z1
= 0

x101x207x2 + x113x207x2 + x114x207x2 + x174x207x2 
- x207x8x2 - x207x16x2 - x207x93x2 
- z207z8z2 - z207z136z2 - z207z0z2
= 0


x123x1x3 + x52x1x3 + x113x1x3 + x114x1x3 + x147x1x3 
- v1v8v3 - v1v136v3 - v1v0v3
= 0

x101x8x2 + x113x8x2 + x114x8x2 + x174x8x2 + x207x8x2 
+ v101v8v2 + v113v8v2 + v114v8v2 + v174v8v2 + v16v8v2 + v93v8v2 + v136v8v2 + v207v8v2 
= 0
x123x8x3 + x52x8x3 + x113x8x3 + x114x8x3 + x147x8x3 
+ v123v8v3 + v52v8v3 + v113v8v3 + v114v8v3 + v147v8v3 + v1v8v3 + v136v8v3 
= 0

x132x16x1 + x52x16x1 + x147x16x1 + x18x16x1 + x149x16x1 
- v16v122v1 - v16v0v1
= 0
x101x16x2 + x113x16x2 + x114x16x2 + x174x16x2 + x93x16x2 + x136x16x2 + x207x16x2 
- v16v8v2 - v16v136v2 - v16v0v2
= 0

x101x93x2 + x113x93x2 + x114x93x2 + x174x93x2 + x207x93x2 
- x93x16x2 
- v93v8v2 - v93v136v2 - v93v0v2
= 0

x132x122x1 + x52x122x1 + x147x122x1 + x18x122x1 
+ v132v122v1 + v52v122v1 + v147v122v1 + v18v122v1 + v16v122v1 + v149v122v1 
= 0

x101x136x2 + x113x136x2 + x114x136x2 + x174x136x2 
+ v101v136v2 + v113v136v2 + v114v136v2 + v174v136v2 + v16v136v2 + v93v136v2 + v207v136v2 
- x136x16x2 
- v136v8v2 - v136v0v2
= 0
x123x136x3 + x52x136x3 + x113x136x3 + x114x136x3 + x147x136x3 
+ v123v136v3 + v52v136v3 + v113v136v3 + v114v136v3 + v147v136v3 + v1v136v3 
- v136v8v3 - v136v0v3
= 0

x132x149x1 + x52x149x1 + x147x149x1 + x18x149x1 
- x149x16x1 
- v149v122v1 - v149v0v1
= 0

x101x207x2 + x113x207x2 + x114x207x2 + x174x207x2 
- x207x8x2 - x207x16x2 - x207x93x2 
- v207v8v2 - v207v136v2 - v207v0v2
= 0


2X1 - x123x1x3 - x52x1x3 - x113x1x3 - x114x1x3 - x147x1x3 = 0
1X8 - x101x8x2 - x113x8x2 - x114x8x2 - x174x8x2 - x207x8x2 = 0
1X8 - x123x8x3 - x52x8x3 - x113x8x3 - x114x8x3 - x147x8x3 = 0
1X16 - x132x16x1 - x52x16x1 - x147x16x1 - x18x16x1 - x149x16x1 = 0
1X16 - x101x16x2 - x113x16x2 - x114x16x2 - x174x16x2 - x93x16x2 - x136x16x2 - x207x16x2 = 0
2X93 - x101x93x2 - x113x93x2 - x114x93x2 - x174x93x2 - x207x93x2 = 0
2X122 - x132x122x1 - x52x122x1 - x147x122x1 - x18x122x1 = 0
1X136 - x101x136x2 - x113x136x2 - x114x136x2 - x174x136x2 = 0
1X136 - x123x136x3 - x52x136x3 - x113x136x3 - x114x136x3 - x147x136x3 = 0
2X149 - x132x149x1 - x52x149x1 - x147x149x1 - x18x149x1 = 0
2X207 - x101x207x2 - x113x207x2 - x114x207x2 - x174x207x2 = 0

2Y1 - y123y1y3 - y52y1y3 - y113y1y3 - y114y1y3 - y147y1y3 - y8y1y3 - y136y1y3 = 0
1Y16 - y132y16y1 - y52y16y1 - y147y16y1 - y18y16y1 - y122y16y1 - y149y16y1 = 0
1Y16 - y101y16y2 - y113y16y2 - y114y16y2 - y174y16y2 - y8y16y2 - y93y16y2 - y136y16y2 - y207y16y2 = 0
2Y93 - y101y93y2 - y113y93y2 - y114y93y2 - y174y93y2 - y8y93y2 - y136y93y2 - y207y93y2 = 0
2Y149 - y132y149y1 - y52y149y1 - y147y149y1 - y18y149y1 - y122y149y1 = 0
2Y207 - y101y207y2 - y113y207y2 - y114y207y2 - y174y207y2 - y8y207y2 - y136y207y2 = 0

1Z8 - z101z8z2 - z113z8z2 - z114z8z2 - z174z8z2 - z16z8z2 - z93z8z2 - z136z8z2 - z207z8z2 = 0
1Z8 - z123z8z3 - z52z8z3 - z113z8z3 - z114z8z3 - z147z8z3 - z1z8z3 - z136z8z3 = 0
2Z122 - z132z122z1 - z52z122z1 - z147z122z1 - z18z122z1 - z16z122z1 - z149z122z1 = 0
1Z136 - z101z136z2 - z113z136z2 - z114z136z2 - z174z136z2 - z16z136z2 - z93z136z2 - z207z136z2 = 0
1Z136 - z123z136z3 - z52z136z3 - z113z136z3 - z114z136z3 - z147z136z3 - z1z136z3 = 0

1V8 - v101v8v2 - v113v8v2 - v114v8v2 - v174v8v2 - v16v8v2 - v93v8v2 - v136v8v2 - v207v8v2 = 0
1V8 - v123v8v3 - v52v8v3 - v113v8v3 - v114v8v3 - v147v8v3 - v1v8v3 - v136v8v3 = 0
2V122 - v132v122v1 - v52v122v1 - v147v122v1 - v18v122v1 - v16v122v1 - v149v122v1 = 0
1V136 - v101v136v2 - v113v136v2 - v114v136v2 - v174v136v2 - v16v136v2 - v93v136v2 - v207v136v2 = 0
1V136 - v123v136v3 - v52v136v3 - v113v136v3 - v114v136v3 - v147v136v3 - v1v136v3 = 0


s132 - s16 + 5.935427a132a16a1 <= 4.56
s132 - s122 + 6.235390a132a122a1 <= 4.56
s132 - s149 + 5.921021a132a149a1 <= 4.56
s101 - s8 + 6.271035a101a8a2 <= 4.90
s101 - s16 + 6.596580a101a16a2 <= 4.90
s101 - s93 + 6.595279a101a93a2 <= 4.90
s101 - s136 + 6.196231a101a136a2 <= 4.90
s101 - s207 + 6.410239a101a207a2 <= 4.90
s123 - s1 + 6.651594a123a1a3 <= 5.12
s123 - s8 + 6.471200a123a8a3 <= 5.12
s123 - s136 + 6.396298a123a136a3 <= 5.12
s52 - s1 + 6.249720a52a1a3 <= 5.00
s52 - s8 + 6.321256a52a8a3 <= 5.00
s52 - s16 + 6.401479a52a16a1 <= 5.00
s52 - s122 + 6.366945a52a122a1 <= 5.00
s52 - s136 + 6.272830a52a136a3 <= 5.00
s52 - s149 + 6.338504a52a149a1 <= 5.00
s113 - s1 + 6.497504a113a1a3 <= 5.29
s113 - s8 + 6.601255a113a8a2 <= 5.29
s113 - s8 + 6.601255a113a8a3 <= 5.29
s113 - s16 + 6.649588a113a16a2 <= 5.29
s113 - s93 + 6.651390a113a93a2 <= 5.29
s113 - s136 + 6.562649a113a136a2 <= 5.29
s113 - s136 + 6.562649a113a136a3 <= 5.29
s113 - s207 + 6.457653a113a207a2 <= 5.29
s114 - s1 + 5.995773a114a1a3 <= 4.71
s114 - s8 + 6.339697a114a8a2 <= 4.71
s114 - s8 + 6.339697a114a8a3 <= 4.71
s114 - s16 + 6.012778a114a16a2 <= 4.71
s114 - s93 + 6.027022a114a93a2 <= 4.71
s114 - s136 + 6.324858a114a136a2 <= 4.71
s114 - s136 + 6.324858a114a136a3 <= 4.71
s114 - s207 + 5.994927a114a207a2 <= 4.71
s147 - s1 + 6.713383a147a1a3 <= 5.61
s147 - s8 + 6.919651a147a8a3 <= 5.61
s147 - s16 + 6.865680a147a16a1 <= 5.61
s147 - s122 + 6.956425a147a122a1 <= 5.61
s147 - s136 + 6.903822a147a136a3 <= 5.61
s147 - s149 + 6.801753a147a149a1 <= 5.61
s18 - s16 + 7.435606a18a16a1 <= 5.84
s18 - s122 + 7.061741a18a122a1 <= 5.84
s18 - s149 + 7.370068a18a149a1 <= 5.84
s174 - s8 + 6.635372a174a8a2 <= 5.43
s174 - s16 + 6.704874a174a16a2 <= 5.43
s174 - s93 + 6.699072a174a93a2 <= 5.43
s174 - s136 + 6.646333a174a136a2 <= 5.43
s174 - s207 + 6.576818a174a207a2 <= 5.43
s93 - s16 + 7.854907a93a16a2 <= 6.84
s136 - s16 + 7.600669a136a16a2 <= 6.11
s149 - s16 + 7.586667a149a16a1 <= 6.52
s207 - s8 + 7.348967a207a8a2 <= 6.00
s207 - s16 + 7.191949a207a16a2 <= 6.00
s207 - s93 + 7.194136a207a93a2 <= 6.00

t132 - t16 + 5.935427b132b16b1 <= 4.56
t132 - t149 + 5.921021b132b149b1 <= 4.56
t101 - t16 + 6.596580b101b16b2 <= 4.90
t101 - t93 + 6.595279b101b93b2 <= 4.90
t101 - t207 + 6.410239b101b207b2 <= 4.90
t123 - t1 + 6.651594b123b1b3 <= 5.12
t52 - t1 + 6.249720b52b1b3 <= 5.00
t52 - t16 + 6.401479b52b16b1 <= 5.00
t52 - t149 + 6.338504b52b149b1 <= 5.00
t113 - t1 + 6.497504b113b1b3 <= 5.29
t113 - t16 + 6.649588b113b16b2 <= 5.29
t113 - t93 + 6.651390b113b93b2 <= 5.29
t113 - t207 + 6.457653b113b207b2 <= 5.29
t114 - t1 + 5.995773b114b1b3 <= 4.71
t114 - t16 + 6.012778b114b16b2 <= 4.71
t114 - t93 + 6.027022b114b93b2 <= 4.71
t114 - t207 + 5.994927b114b207b2 <= 4.71
t147 - t1 + 6.713383b147b1b3 <= 5.61
t147 - t16 + 6.865680b147b16b1 <= 5.61
t147 - t149 + 6.801753b147b149b1 <= 5.61
t18 - t16 + 7.435606b18b16b1 <= 5.84
t18 - t149 + 7.370068b18b149b1 <= 5.84
t174 - t16 + 6.704874b174b16b2 <= 5.43
t174 - t93 + 6.699072b174b93b2 <= 5.43
t174 - t207 + 6.576818b174b207b2 <= 5.43
t8 - t1 + 21.362276b8b1b3 <= 20.00
t8 - t16 + 21.468235b8b16b2 <= 20.00
t8 - t93 + 21.459759b8b93b2 <= 20.00
t8 - t207 + 21.348967b8b207b2 <= 20.00
t93 - t16 + 7.854907b93b16b2 <= 6.84
t122 - t16 + 21.484102b122b16b1 <= 20.00
t122 - t149 + 21.427967b122b149b1 <= 20.00
t136 - t1 + 21.366909b136b1b3 <= 20.00
t136 - t16 + 21.490669b136b16b2 <= 20.00
t136 - t93 + 21.484148b136b93b2 <= 20.00
t136 - t207 + 21.345768b136b207b2 <= 20.00
t149 - t16 + 7.586667b149b16b1 <= 6.52
t207 - t16 + 7.191949b207b16b2 <= 6.00
t207 - t93 + 7.194136b207b93b2 <= 6.00

u132 - u122 + 6.235390c132c122c1 <= 4.56
u101 - u8 + 6.271035c101c8c2 <= 4.90
u101 - u136 + 6.196231c101c136c2 <= 4.90
u123 - u8 + 6.471200c123c8c3 <= 5.12
u123 - u136 + 6.396298c123c136c3 <= 5.12
u52 - u8 + 6.321256c52c8c3 <= 5.00
u52 - u122 + 6.366945c52c122c1 <= 5.00
u52 - u136 + 6.272830c52c136c3 <= 5.00
u113 - u8 + 6.601255c113c8c2 <= 5.29
u113 - u8 + 6.601255c113c8c3 <= 5.29
u113 - u136 + 6.562649c113c136c2 <= 5.29
u113 - u136 + 6.562649c113c136c3 <= 5.29
u114 - u8 + 6.339697c114c8c2 <= 4.71
u114 - u8 + 6.339697c114c8c3 <= 4.71
u114 - u136 + 6.324858c114c136c2 <= 4.71
u114 - u136 + 6.324858c114c136c3 <= 4.71
u147 - u8 + 6.919651c147c8c3 <= 5.61
u147 - u122 + 6.956425c147c122c1 <= 5.61
u147 - u136 + 6.903822c147c136c3 <= 5.61
u18 - u122 + 7.061741c18c122c1 <= 5.84
u174 - u8 + 6.635372c174c8c2 <= 5.43
u174 - u136 + 6.646333c174c136c2 <= 5.43
u1 - u8 + 21.362276c1c8c3 <= 20.00
u1 - u136 + 21.366909c1c136c3 <= 20.00
u16 - u8 + 21.468235c16c8c2 <= 20.00
u16 - u122 + 21.484102c16c122c1 <= 20.00
u16 - u136 + 21.490669c16c136c2 <= 20.00
u93 - u8 + 21.459759c93c8c2 <= 20.00
u93 - u136 + 21.484148c93c136c2 <= 20.00
u136 - u8 + 7.186012c136c8c2 <= 6.11
u136 - u8 + 7.186012c136c8c3 <= 6.11
u149 - u122 + 21.427967c149c122c1 <= 20.00
u207 - u8 + 21.348967c207c8c2 <= 20.00
u207 - u136 + 21.345768c207c136c2 <= 20.00

r132 - r122 + 6.235390d132d122d1 <= 4.56
r101 - r8 + 6.271035d101d8d2 <= 4.90
r101 - r136 + 6.196231d101d136d2 <= 4.90
r123 - r8 + 6.471200d123d8d3 <= 5.12
r123 - r136 + 6.396298d123d136d3 <= 5.12
r52 - r8 + 6.321256d52d8d3 <= 5.00
r52 - r122 + 6.366945d52d122d1 <= 5.00
r52 - r136 + 6.272830d52d136d3 <= 5.00
r113 - r8 + 6.601255d113d8d2 <= 5.29
r113 - r8 + 6.601255d113d8d3 <= 5.29
r113 - r136 + 6.562649d113d136d2 <= 5.29
r113 - r136 + 6.562649d113d136d3 <= 5.29
r114 - r8 + 6.339697d114d8d2 <= 4.71
r114 - r8 + 6.339697d114d8d3 <= 4.71
r114 - r136 + 6.324858d114d136d2 <= 4.71
r114 - r136 + 6.324858d114d136d3 <= 4.71
r147 - r8 + 6.919651d147d8d3 <= 5.61
r147 - r122 + 6.956425d147d122d1 <= 5.61
r147 - r136 + 6.903822d147d136d3 <= 5.61
r18 - r122 + 7.061741d18d122d1 <= 5.84
r174 - r8 + 6.635372d174d8d2 <= 5.43
r174 - r136 + 6.646333d174d136d2 <= 5.43
r1 - r8 + 21.362276d1d8d3 <= 20.00
r1 - r136 + 21.366909d1d136d3 <= 20.00
r16 - r8 + 21.468235d16d8d2 <= 20.00
r16 - r122 + 21.484102d16d122d1 <= 20.00
r16 - r136 + 21.490669d16d136d2 <= 20.00
r93 - r8 + 21.459759d93d8d2 <= 20.00
r93 - r136 + 21.484148d93d136d2 <= 20.00
r136 - r8 + 7.446012d136d8d2 <= 6.37
r136 - r8 + 7.446012d136d8d3 <= 6.37
r149 - r122 + 21.427967d149d122d1 <= 20.00
r207 - r8 + 21.348967d207d8d2 <= 20.00
r207 - r136 + 21.345768d207d136d2 <= 20.00

x123x1x3 + x52x1x3 + x113x1x3 + x114x1x3 + x147x1x3 

- 2w1 <= 0

x101x8x2 + x113x8x2 + x114x8x2 + x174x8x2 + x207x8x2 + x123x8x3 + x52x8x3 + x113x8x3 + x114x8x3 + x147x8x3 

- 2w8 <= 0

x132x16x1 + x52x16x1 + x147x16x1 + x18x16x1 + x149x16x1 + x101x16x2 + x113x16x2 + x114x16x2 + x174x16x2 + x93x16x2 + x136x16x2 + x207x16x2 

- 2w16 <= 0

x101x93x2 + x113x93x2 + x114x93x2 + x174x93x2 + x207x93x2 
- x93x16x2 
- 2w93 <= 0

x132x122x1 + x52x122x1 + x147x122x1 + x18x122x1 

- 2w122 <= 0

x101x136x2 + x113x136x2 + x114x136x2 + x174x136x2 + x123x136x3 + x52x136x3 + x113x136x3 + x114x136x3 + x147x136x3 
- x136x16x2 
- 2w136 <= 0

x132x149x1 + x52x149x1 + x147x149x1 + x18x149x1 
- x149x16x1 
- 2w149 <= 0

x101x207x2 + x113x207x2 + x114x207x2 + x174x207x2 
- x207x8x2 - x207x16x2 - x207x93x2 
- 2w207 <= 0

x123x1x3 + x52x1x3 + x113x1x3 + x114x1x3 + x147x1x3 

- w1 >= 0

x101x8x2 + x113x8x2 + x114x8x2 + x174x8x2 + x207x8x2 + x123x8x3 + x52x8x3 + x113x8x3 + x114x8x3 + x147x8x3 

- w8 >= 0

x132x16x1 + x52x16x1 + x147x16x1 + x18x16x1 + x149x16x1 + x101x16x2 + x113x16x2 + x114x16x2 + x174x16x2 + x93x16x2 + x136x16x2 + x207x16x2 

- w16 >= 0

x101x93x2 + x113x93x2 + x114x93x2 + x174x93x2 + x207x93x2 
- x93x16x2 
- w93 >= 0

x132x122x1 + x52x122x1 + x147x122x1 + x18x122x1 

- w122 >= 0

x101x136x2 + x113x136x2 + x114x136x2 + x174x136x2 + x123x136x3 + x52x136x3 + x113x136x3 + x114x136x3 + x147x136x3 
- x136x16x2 
- w136 >= 0

x132x149x1 + x52x149x1 + x147x149x1 + x18x149x1 
- x149x16x1 
- w149 >= 0

x101x207x2 + x113x207x2 + x114x207x2 + x174x207x2 
- x207x8x2 - x207x16x2 - x207x93x2 
- w207 >= 0

s132 - t132 + 4.56w132 <= 4.56
s101 - t101 + 4.90w101 <= 4.90
s123 - t123 + 5.12w123 <= 5.12
s52 - t52 + 5.00w52 <= 5.00
s113 - t113 + 5.29w113 <= 5.29
s114 - t114 + 4.71w114 <= 4.71
s147 - t147 + 5.61w147 <= 5.61
s18 - t18 + 5.84w18 <= 5.84
s174 - t174 + 5.43w174 <= 5.43
s1 - t1 + 6.16w1 <= 6.16
s8 - t8 + 6.43w8 <= 6.43
s16 - t16 + 6.89w16 <= 6.89
s93 - t93 + 6.84w93 <= 6.84
s122 - t122 + 6.70w122 <= 6.70
s136 - t136 + 6.11w136 <= 6.11
s149 - t149 + 6.52w149 <= 6.52
s207 - t207 + 6.00w207 <= 6.00
s132 - u132 + 4.56w132 <= 4.56
s101 - u101 + 4.90w101 <= 4.90
s123 - u123 + 5.12w123 <= 5.12
s52 - u52 + 5.00w52 <= 5.00
s113 - u113 + 5.29w113 <= 5.29
s114 - u114 + 4.71w114 <= 4.71
s147 - u147 + 5.61w147 <= 5.61
s18 - u18 + 5.84w18 <= 5.84
s174 - u174 + 5.43w174 <= 5.43
s1 - u1 + 6.16w1 <= 6.16
s8 - u8 + 6.43w8 <= 6.43
s16 - u16 + 6.89w16 <= 6.89
s93 - u93 + 6.84w93 <= 6.84
s122 - u122 + 6.70w122 <= 6.70
s136 - u136 + 6.11w136 <= 6.11
s149 - u149 + 6.52w149 <= 6.52
s207 - u207 + 6.00w207 <= 6.00
s132 - r132 + 4.56w132 <= 4.56
s101 - r101 + 4.90w101 <= 4.90
s123 - r123 + 5.12w123 <= 5.12
s52 - r52 + 5.00w52 <= 5.00
s113 - r113 + 5.29w113 <= 5.29
s114 - r114 + 4.71w114 <= 4.71
s147 - r147 + 5.61w147 <= 5.61
s18 - r18 + 5.84w18 <= 5.84
s174 - r174 + 5.43w174 <= 5.43
s1 - r1 + 6.16w1 <= 6.16
s8 - r8 + 6.43w8 <= 6.43
s16 - r16 + 6.89w16 <= 6.89
s93 - r93 + 6.84w93 <= 6.84
s122 - r122 + 6.70w122 <= 6.70
s136 - r136 + 6.11w136 <= 6.11
s149 - r149 + 6.52w149 <= 6.52
s207 - r207 + 6.00w207 <= 6.00

s132 - t132 - 4.56w132 >= -4.56
s101 - t101 - 4.90w101 >= -4.90
s123 - t123 - 5.12w123 >= -5.12
s52 - t52 - 5.00w52 >= -5.00
s113 - t113 - 5.29w113 >= -5.29
s114 - t114 - 4.71w114 >= -4.71
s147 - t147 - 5.61w147 >= -5.61
s18 - t18 - 5.84w18 >= -5.84
s174 - t174 - 5.43w174 >= -5.43
s1 - t1 - 6.16w1 >= -6.16
s8 - t8 - 20.00w8 >= -20.00
s16 - t16 - 6.89w16 >= -6.89
s93 - t93 - 6.84w93 >= -6.84
s122 - t122 - 20.00w122 >= -20.00
s136 - t136 - 20.00w136 >= -20.00
s149 - t149 - 6.52w149 >= -6.52
s207 - t207 - 6.00w207 >= -6.00


s132 - u132 - 4.56w132 >= -4.56
s101 - u101 - 4.90w101 >= -4.90
s123 - u123 - 5.12w123 >= -5.12
s52 - u52 - 5.00w52 >= -5.00
s113 - u113 - 5.29w113 >= -5.29
s114 - u114 - 4.71w114 >= -4.71
s147 - u147 - 5.61w147 >= -5.61
s18 - u18 - 5.84w18 >= -5.84
s174 - u174 - 5.43w174 >= -5.43
s1 - u1 - 20.00w1 >= -20.00
s8 - u8 - 6.43w8 >= -6.43
s16 - u16 - 20.00w16 >= -20.00
s93 - u93 - 20.00w93 >= -20.00
s122 - u122 - 6.71w122 >= -6.71
s136 - u136 - 6.11w136 >= -6.11
s149 - u149 - 20.00w149 >= -20.00
s207 - u207 - 20.00w207 >= -20.00


s132 - r132 - 4.56w132 >= -4.56
s101 - r101 - 4.90w101 >= -4.90
s123 - r123 - 5.12w123 >= -5.12
s52 - r52 - 5.00w52 >= -5.00
s113 - r113 - 5.29w113 >= -5.29
s114 - r114 - 4.71w114 >= -4.71
s147 - r147 - 5.61w147 >= -5.61
s18 - r18 - 5.84w18 >= -5.84
s174 - r174 - 5.43w174 >= -5.43
s1 - r1 - 20.00w1 >= -20.00
s8 - r8 - 6.59w8 >= -6.59
s16 - r16 - 20.00w16 >= -20.00
s93 - r93 - 20.00w93 >= -20.00
s122 - r122 - 6.70w122 >= -6.70
s136 - r136 - 6.37w136 >= -6.37
s149 - r149 - 20.00w149 >= -20.00
s207 - r207 - 20.00w207 >= -20.00


s1 + 6.16a123a1a3 <= 12.16
s1 + 6.16a52a1a3 <= 12.16
s1 + 6.16a113a1a3 <= 12.16
s1 + 6.16a114a1a3 <= 12.16
s1 + 6.16a147a1a3 <= 12.16
s8 + 6.43a101a8a2 <= 12.43
s8 + 6.43a123a8a3 <= 12.43
s8 + 6.43a52a8a3 <= 12.43
s8 + 6.43a113a8a2 <= 12.43
s8 + 6.43a113a8a3 <= 12.43
s8 + 6.43a114a8a2 <= 12.43
s8 + 6.43a114a8a3 <= 12.43
s8 + 6.43a147a8a3 <= 12.43
s8 + 6.43a174a8a2 <= 12.43
s8 + 6.43a207a8a2 <= 12.43
s16 + 6.89a132a16a1 <= 12.89
s16 + 6.89a101a16a2 <= 12.89
s16 + 6.89a52a16a1 <= 12.89
s16 + 6.89a113a16a2 <= 12.89
s16 + 6.89a114a16a2 <= 12.89
s16 + 6.89a147a16a1 <= 12.89
s16 + 6.89a18a16a1 <= 12.89
s16 + 6.89a174a16a2 <= 12.89
s16 + 6.89a93a16a2 <= 12.89
s16 + 6.89a136a16a2 <= 12.89
s16 + 6.89a149a16a1 <= 12.89
s16 + 6.89a207a16a2 <= 12.89
s93 + 6.84a101a93a2 <= 12.84
s93 + 6.84a113a93a2 <= 12.84
s93 + 6.84a114a93a2 <= 12.84
s93 + 6.84a174a93a2 <= 12.84
s93 + 6.84a207a93a2 <= 12.84
s122 + 6.70a132a122a1 <= 12.70
s122 + 6.70a52a122a1 <= 12.70
s122 + 6.70a147a122a1 <= 12.70
s122 + 6.70a18a122a1 <= 12.70
s136 + 6.11a101a136a2 <= 12.11
s136 + 6.11a123a136a3 <= 12.11
s136 + 6.11a52a136a3 <= 12.11
s136 + 6.11a113a136a2 <= 12.11
s136 + 6.11a113a136a3 <= 12.11
s136 + 6.11a114a136a2 <= 12.11
s136 + 6.11a114a136a3 <= 12.11
s136 + 6.11a147a136a3 <= 12.11
s136 + 6.11a174a136a2 <= 12.11
s149 + 6.52a132a149a1 <= 12.52
s149 + 6.52a52a149a1 <= 12.52
s149 + 6.52a147a149a1 <= 12.52
s149 + 6.52a18a149a1 <= 12.52
s207 + 6.00a101a207a2 <= 12.00
s207 + 6.00a113a207a2 <= 12.00
s207 + 6.00a114a207a2 <= 12.00
s207 + 6.00a174a207a2 <= 12.00

u8 - 6.0c101c8c2 > 0
u8 - 6.0c123c8c3 > 0
u8 - 6.0c52c8c3 > 0
u8 - 6.0c113c8c2 > 0
u8 - 6.0c113c8c3 > 0
u8 - 6.0c114c8c2 > 0
u8 - 6.0c114c8c3 > 0
u8 - 6.0c147c8c3 > 0
u8 - 6.0c174c8c2 > 0
u8 - 6.0c1c8c3 > 0
u8 - 6.0c16c8c2 > 0
u8 - 6.0c93c8c2 > 0
u8 - 6.0c136c8c2 > 0
u8 - 6.0c136c8c3 > 0
u8 - 6.0c207c8c2 > 0
u122 - 6.0c132c122c1 > 0
u122 - 6.0c52c122c1 > 0
u122 - 6.0c147c122c1 > 0
u122 - 6.0c18c122c1 > 0
u122 - 6.0c16c122c1 > 0
u122 - 6.0c149c122c1 > 0
u136 - 6.0c101c136c2 > 0
u136 - 6.0c123c136c3 > 0
u136 - 6.0c52c136c3 > 0
u136 - 6.0c113c136c2 > 0
u136 - 6.0c113c136c3 > 0
u136 - 6.0c114c136c2 > 0
u136 - 6.0c114c136c3 > 0
u136 - 6.0c147c136c3 > 0
u136 - 6.0c174c136c2 > 0
u136 - 6.0c1c136c3 > 0
u136 - 6.0c16c136c2 > 0
u136 - 6.0c93c136c2 > 0
u136 - 6.0c207c136c2 > 0

r8 - 6.0d101d8d2 > 0
r8 - 6.0d123d8d3 > 0
r8 - 6.0d52d8d3 > 0
r8 - 6.0d113d8d2 > 0
r8 - 6.0d113d8d3 > 0
r8 - 6.0d114d8d2 > 0
r8 - 6.0d114d8d3 > 0
r8 - 6.0d147d8d3 > 0
r8 - 6.0d174d8d2 > 0
r8 - 6.0d1d8d3 > 0
r8 - 6.0d16d8d2 > 0
r8 - 6.0d93d8d2 > 0
r8 - 6.0d136d8d2 > 0
r8 - 6.0d136d8d3 > 0
r8 - 6.0d207d8d2 > 0
r122 - 6.0d132d122d1 > 0
r122 - 6.0d52d122d1 > 0
r122 - 6.0d147d122d1 > 0
r122 - 6.0d18d122d1 > 0
r122 - 6.0d16d122d1 > 0
r122 - 6.0d149d122d1 > 0
r136 - 6.0d101d136d2 > 0
r136 - 6.0d123d136d3 > 0
r136 - 6.0d52d136d3 > 0
r136 - 6.0d113d136d2 > 0
r136 - 6.0d113d136d3 > 0
r136 - 6.0d114d136d2 > 0
r136 - 6.0d114d136d3 > 0
r136 - 6.0d147d136d3 > 0
r136 - 6.0d174d136d2 > 0
r136 - 6.0d1d136d3 > 0
r136 - 6.0d16d136d2 > 0
r136 - 6.0d93d136d2 > 0
r136 - 6.0d207d136d2 > 0


a123a1a3 + b123b1b3 <= 1
a52a1a3 + b52b1b3 <= 1
a113a1a3 + b113b1b3 <= 1
a114a1a3 + b114b1b3 <= 1
a147a1a3 + b147b1b3 <= 1
a101a8a2 + b101b8b2 <= 1
a123a8a3 + b123b8b3 <= 1
a52a8a3 + b52b8b3 <= 1
a113a8a2 + b113b8b2 <= 1
a113a8a3 + b113b8b3 <= 1
a114a8a2 + b114b8b2 <= 1
a114a8a3 + b114b8b3 <= 1
a147a8a3 + b147b8b3 <= 1
a174a8a2 + b174b8b2 <= 1
a207a8a2 + b207b8b2 <= 1
a132a16a1 + b132b16b1 <= 1
a101a16a2 + b101b16b2 <= 1
a52a16a1 + b52b16b1 <= 1
a113a16a2 + b113b16b2 <= 1
a114a16a2 + b114b16b2 <= 1
a147a16a1 + b147b16b1 <= 1
a18a16a1 + b18b16b1 <= 1
a174a16a2 + b174b16b2 <= 1
a93a16a2 + b93b16b2 <= 1
a136a16a2 + b136b16b2 <= 1
a149a16a1 + b149b16b1 <= 1
a207a16a2 + b207b16b2 <= 1
a101a93a2 + b101b93b2 <= 1
a113a93a2 + b113b93b2 <= 1
a114a93a2 + b114b93b2 <= 1
a174a93a2 + b174b93b2 <= 1
a207a93a2 + b207b93b2 <= 1
a132a122a1 + b132b122b1 <= 1
a52a122a1 + b52b122b1 <= 1
a147a122a1 + b147b122b1 <= 1
a18a122a1 + b18b122b1 <= 1
a101a136a2 + b101b136b2 <= 1
a123a136a3 + b123b136b3 <= 1
a52a136a3 + b52b136b3 <= 1
a113a136a2 + b113b136b2 <= 1
a113a136a3 + b113b136b3 <= 1
a114a136a2 + b114b136b2 <= 1
a114a136a3 + b114b136b3 <= 1
a147a136a3 + b147b136b3 <= 1
a174a136a2 + b174b136b2 <= 1
a132a149a1 + b132b149b1 <= 1
a52a149a1 + b52b149b1 <= 1
a147a149a1 + b147b149b1 <= 1
a18a149a1 + b18b149b1 <= 1
a101a207a2 + b101b207b2 <= 1
a113a207a2 + b113b207b2 <= 1
a114a207a2 + b114b207b2 <= 1
a174a207a2 + b174b207b2 <= 1


a123a1a3 + c123c1c3 <= 1
a52a1a3 + c52c1c3 <= 1
a113a1a3 + c113c1c3 <= 1
a114a1a3 + c114c1c3 <= 1
a147a1a3 + c147c1c3 <= 1
a101a8a2 + c101c8c2 <= 1
a123a8a3 + c123c8c3 <= 1
a52a8a3 + c52c8c3 <= 1
a113a8a2 + c113c8c2 <= 1
a113a8a3 + c113c8c3 <= 1
a114a8a2 + c114c8c2 <= 1
a114a8a3 + c114c8c3 <= 1
a147a8a3 + c147c8c3 <= 1
a174a8a2 + c174c8c2 <= 1
a207a8a2 + c207c8c2 <= 1
a132a16a1 + c132c16c1 <= 1
a101a16a2 + c101c16c2 <= 1
a52a16a1 + c52c16c1 <= 1
a113a16a2 + c113c16c2 <= 1
a114a16a2 + c114c16c2 <= 1
a147a16a1 + c147c16c1 <= 1
a18a16a1 + c18c16c1 <= 1
a174a16a2 + c174c16c2 <= 1
a93a16a2 + c93c16c2 <= 1
a136a16a2 + c136c16c2 <= 1
a149a16a1 + c149c16c1 <= 1
a207a16a2 + c207c16c2 <= 1
a101a93a2 + c101c93c2 <= 1
a113a93a2 + c113c93c2 <= 1
a114a93a2 + c114c93c2 <= 1
a174a93a2 + c174c93c2 <= 1
a207a93a2 + c207c93c2 <= 1
a132a122a1 + c132c122c1 <= 1
a52a122a1 + c52c122c1 <= 1
a147a122a1 + c147c122c1 <= 1
a18a122a1 + c18c122c1 <= 1
a101a136a2 + c101c136c2 <= 1
a123a136a3 + c123c136c3 <= 1
a52a136a3 + c52c136c3 <= 1
a113a136a2 + c113c136c2 <= 1
a113a136a3 + c113c136c3 <= 1
a114a136a2 + c114c136c2 <= 1
a114a136a3 + c114c136c3 <= 1
a147a136a3 + c147c136c3 <= 1
a174a136a2 + c174c136c2 <= 1
a132a149a1 + c132c149c1 <= 1
a52a149a1 + c52c149c1 <= 1
a147a149a1 + c147c149c1 <= 1
a18a149a1 + c18c149c1 <= 1
a101a207a2 + c101c207c2 <= 1
a113a207a2 + c113c207c2 <= 1
a114a207a2 + c114c207c2 <= 1
a174a207a2 + c174c207c2 <= 1


a123a1a3 + d123d1d3 <= 1
a52a1a3 + d52d1d3 <= 1
a113a1a3 + d113d1d3 <= 1
a114a1a3 + d114d1d3 <= 1
a147a1a3 + d147d1d3 <= 1
a101a8a2 + d101d8d2 <= 1
a123a8a3 + d123d8d3 <= 1
a52a8a3 + d52d8d3 <= 1
a113a8a2 + d113d8d2 <= 1
a113a8a3 + d113d8d3 <= 1
a114a8a2 + d114d8d2 <= 1
a114a8a3 + d114d8d3 <= 1
a147a8a3 + d147d8d3 <= 1
a174a8a2 + d174d8d2 <= 1
a207a8a2 + d207d8d2 <= 1
a132a16a1 + d132d16d1 <= 1
a101a16a2 + d101d16d2 <= 1
a52a16a1 + d52d16d1 <= 1
a113a16a2 + d113d16d2 <= 1
a114a16a2 + d114d16d2 <= 1
a147a16a1 + d147d16d1 <= 1
a18a16a1 + d18d16d1 <= 1
a174a16a2 + d174d16d2 <= 1
a93a16a2 + d93d16d2 <= 1
a136a16a2 + d136d16d2 <= 1
a149a16a1 + d149d16d1 <= 1
a207a16a2 + d207d16d2 <= 1
a101a93a2 + d101d93d2 <= 1
a113a93a2 + d113d93d2 <= 1
a114a93a2 + d114d93d2 <= 1
a174a93a2 + d174d93d2 <= 1
a207a93a2 + d207d93d2 <= 1
a132a122a1 + d132d122d1 <= 1
a52a122a1 + d52d122d1 <= 1
a147a122a1 + d147d122d1 <= 1
a18a122a1 + d18d122d1 <= 1
a101a136a2 + d101d136d2 <= 1
a123a136a3 + d123d136d3 <= 1
a52a136a3 + d52d136d3 <= 1
a113a136a2 + d113d136d2 <= 1
a113a136a3 + d113d136d3 <= 1
a114a136a2 + d114d136d2 <= 1
a114a136a3 + d114d136d3 <= 1
a147a136a3 + d147d136d3 <= 1
a174a136a2 + d174d136d2 <= 1
a132a149a1 + d132d149d1 <= 1
a52a149a1 + d52d149d1 <= 1
a147a149a1 + d147d149d1 <= 1
a18a149a1 + d18d149d1 <= 1
a101a207a2 + d101d207d2 <= 1
a113a207a2 + d113d207d2 <= 1
a114a207a2 + d114d207d2 <= 1
a174a207a2 + d174d207d2 <= 1

x132x16x1 - 1a132a16a1 <= 0
x132x122x1 - 2a132a122a1 <= 0
x132x149x1 - 2a132a149a1 <= 0
x101x8x2 - 1a101a8a2 <= 0
x101x16x2 - 1a101a16a2 <= 0
x101x93x2 - 2a101a93a2 <= 0
x101x136x2 - 1a101a136a2 <= 0
x101x207x2 - 2a101a207a2 <= 0
x123x1x3 - 2a123a1a3 <= 0
x123x8x3 - 1a123a8a3 <= 0
x123x136x3 - 1a123a136a3 <= 0
x52x1x3 - 2a52a1a3 <= 0
x52x8x3 - 1a52a8a3 <= 0
x52x16x1 - 1a52a16a1 <= 0
x52x122x1 - 2a52a122a1 <= 0
x52x136x3 - 1a52a136a3 <= 0
x52x149x1 - 2a52a149a1 <= 0
x113x1x3 - 2a113a1a3 <= 0
x113x8x2 - 1a113a8a2 <= 0
x113x8x3 - 1a113a8a3 <= 0
x113x16x2 - 1a113a16a2 <= 0
x113x93x2 - 2a113a93a2 <= 0
x113x136x2 - 1a113a136a2 <= 0
x113x136x3 - 1a113a136a3 <= 0
x113x207x2 - 2a113a207a2 <= 0
x114x1x3 - 2a114a1a3 <= 0
x114x8x2 - 1a114a8a2 <= 0
x114x8x3 - 1a114a8a3 <= 0
x114x16x2 - 1a114a16a2 <= 0
x114x93x2 - 2a114a93a2 <= 0
x114x136x2 - 1a114a136a2 <= 0
x114x136x3 - 1a114a136a3 <= 0
x114x207x2 - 2a114a207a2 <= 0
x147x1x3 - 2a147a1a3 <= 0
x147x8x3 - 1a147a8a3 <= 0
x147x16x1 - 1a147a16a1 <= 0
x147x122x1 - 2a147a122a1 <= 0
x147x136x3 - 1a147a136a3 <= 0
x147x149x1 - 2a147a149a1 <= 0
x18x16x1 - 1a18a16a1 <= 0
x18x122x1 - 2a18a122a1 <= 0
x18x149x1 - 2a18a149a1 <= 0
x174x8x2 - 1a174a8a2 <= 0
x174x16x2 - 1a174a16a2 <= 0
x174x93x2 - 2a174a93a2 <= 0
x174x136x2 - 1a174a136a2 <= 0
x174x207x2 - 2a174a207a2 <= 0
x93x16x2 - 1a93a16a2 <= 0
x136x16x2 - 1a136a16a2 <= 0
x149x16x1 - 1a149a16a1 <= 0
x207x8x2 - 1a207a8a2 <= 0
x207x16x2 - 1a207a16a2 <= 0
x207x93x2 - 2a207a93a2 <= 0
y132y16y1 - 1b132b16b1 <= 0
y132y149y1 - 2b132b149b1 <= 0
y101y16y2 - 1b101b16b2 <= 0
y101y93y2 - 2b101b93b2 <= 0
y101y207y2 - 2b101b207b2 <= 0
y123y1y3 - 2b123b1b3 <= 0
y52y1y3 - 2b52b1b3 <= 0
y52y16y1 - 1b52b16b1 <= 0
y52y149y1 - 2b52b149b1 <= 0
y113y1y3 - 2b113b1b3 <= 0
y113y16y2 - 1b113b16b2 <= 0
y113y93y2 - 2b113b93b2 <= 0
y113y207y2 - 2b113b207b2 <= 0
y114y1y3 - 2b114b1b3 <= 0
y114y16y2 - 1b114b16b2 <= 0
y114y93y2 - 2b114b93b2 <= 0
y114y207y2 - 2b114b207b2 <= 0
y147y1y3 - 2b147b1b3 <= 0
y147y16y1 - 1b147b16b1 <= 0
y147y149y1 - 2b147b149b1 <= 0
y18y16y1 - 1b18b16b1 <= 0
y18y149y1 - 2b18b149b1 <= 0
y174y16y2 - 1b174b16b2 <= 0
y174y93y2 - 2b174b93b2 <= 0
y174y207y2 - 2b174b207b2 <= 0
y8y1y3 - 2b8b1b3 <= 0
y8y16y2 - 1b8b16b2 <= 0
y8y93y2 - 2b8b93b2 <= 0
y8y207y2 - 2b8b207b2 <= 0
y93y16y2 - 1b93b16b2 <= 0
y122y16y1 - 1b122b16b1 <= 0
y122y149y1 - 2b122b149b1 <= 0
y136y1y3 - 2b136b1b3 <= 0
y136y16y2 - 1b136b16b2 <= 0
y136y93y2 - 2b136b93b2 <= 0
y136y207y2 - 2b136b207b2 <= 0
y149y16y1 - 1b149b16b1 <= 0
y207y16y2 - 1b207b16b2 <= 0
y207y93y2 - 2b207b93b2 <= 0
z132z122z1 - 2c132c122c1 <= 0
z101z8z2 - 1c101c8c2 <= 0
z101z136z2 - 1c101c136c2 <= 0
z123z8z3 - 1c123c8c3 <= 0
z123z136z3 - 1c123c136c3 <= 0
z52z8z3 - 1c52c8c3 <= 0
z52z122z1 - 2c52c122c1 <= 0
z52z136z3 - 1c52c136c3 <= 0
z113z8z2 - 1c113c8c2 <= 0
z113z8z3 - 1c113c8c3 <= 0
z113z136z2 - 1c113c136c2 <= 0
z113z136z3 - 1c113c136c3 <= 0
z114z8z2 - 1c114c8c2 <= 0
z114z8z3 - 1c114c8c3 <= 0
z114z136z2 - 1c114c136c2 <= 0
z114z136z3 - 1c114c136c3 <= 0
z147z8z3 - 1c147c8c3 <= 0
z147z122z1 - 2c147c122c1 <= 0
z147z136z3 - 1c147c136c3 <= 0
z18z122z1 - 2c18c122c1 <= 0
z174z8z2 - 1c174c8c2 <= 0
z174z136z2 - 1c174c136c2 <= 0
z1z8z3 - 1c1c8c3 <= 0
z1z136z3 - 1c1c136c3 <= 0
z16z8z2 - 1c16c8c2 <= 0
z16z122z1 - 2c16c122c1 <= 0
z16z136z2 - 1c16c136c2 <= 0
z93z8z2 - 1c93c8c2 <= 0
z93z136z2 - 1c93c136c2 <= 0
z136z8z2 - 1c136c8c2 <= 0
z136z8z3 - 1c136c8c3 <= 0
z149z122z1 - 2c149c122c1 <= 0
z207z8z2 - 1c207c8c2 <= 0
z207z136z2 - 1c207c136c2 <= 0
v132v122v1 - 2d132d122d1 <= 0
v101v8v2 - 1d101d8d2 <= 0
v101v136v2 - 1d101d136d2 <= 0
v123v8v3 - 1d123d8d3 <= 0
v123v136v3 - 1d123d136d3 <= 0
v52v8v3 - 1d52d8d3 <= 0
v52v122v1 - 2d52d122d1 <= 0
v52v136v3 - 1d52d136d3 <= 0
v113v8v2 - 1d113d8d2 <= 0
v113v8v3 - 1d113d8d3 <= 0
v113v136v2 - 1d113d136d2 <= 0
v113v136v3 - 1d113d136d3 <= 0
v114v8v2 - 1d114d8d2 <= 0
v114v8v3 - 1d114d8d3 <= 0
v114v136v2 - 1d114d136d2 <= 0
v114v136v3 - 1d114d136d3 <= 0
v147v8v3 - 1d147d8d3 <= 0
v147v122v1 - 2d147d122d1 <= 0
v147v136v3 - 1d147d136d3 <= 0
v18v122v1 - 2d18d122d1 <= 0
v174v8v2 - 1d174d8d2 <= 0
v174v136v2 - 1d174d136d2 <= 0
v1v8v3 - 1d1d8d3 <= 0
v1v136v3 - 1d1d136d3 <= 0
v16v8v2 - 1d16d8d2 <= 0
v16v122v1 - 2d16d122d1 <= 0
v16v136v2 - 1d16d136d2 <= 0
v93v8v2 - 1d93d8d2 <= 0
v93v136v2 - 1d93d136d2 <= 0
v136v8v2 - 1d136d8d2 <= 0
v136v8v3 - 1d136d8d3 <= 0
v149v122v1 - 2d149d122d1 <= 0
v207v8v2 - 1d207d8d2 <= 0
v207v136v2 - 1d207d136d2 <= 0

Bounds
s132 = 4.558009
t132 = 4.558009
u132 = 4.558009
r132 = 4.558009
s101 = 4.895565
t101 = 4.895565
u101 = 4.895565
r101 = 4.895565
s123 = 5.122234
t123 = 5.122234
u123 = 5.122234
r123 = 5.122234
s52 = 4.998766
t52 = 4.998766
u52 = 4.998766
r52 = 4.998766
s113 = 5.292999
t113 = 5.292999
u113 = 5.292999
r113 = 5.292999
s114 = 4.706329
t114 = 4.706329
u114 = 4.706329
r114 = 4.706329
s147 = 5.605680
t147 = 5.605680
u147 = 5.605680
r147 = 5.605680
s18 = 5.841337
t18 = 5.841337
u18 = 5.841337
r18 = 5.841337
s174 = 5.430000
t174 = 5.430000
u174 = 5.430000
r174 = 5.430000
5.16 <= s1 <= 6.16
5.59 <= s8 <= 6.43
5.89 <= s16 <= 6.89
5.84 <= s93 <= 6.84
5.71 <= s122 <= 6.70
5.37 <= s136 <= 6.11
5.52 <= s149 <= 6.52
5.00 <= s207 <= 6.00

5.16 <= t1 <= 6.16
0.00 <= t8 <= 20.00
5.89 <= t16 <= 6.89
5.84 <= t93 <= 6.84
0.00 <= t122 <= 20.00
0.00 <= t136 <= 20.00
5.52 <= t149 <= 6.52
5.00 <= t207 <= 6.00

0.00 <= u1 <= 20.00
5.43 <= u8 <= 6.43
0.00 <= u16 <= 20.00
0.00 <= u93 <= 20.00
5.71 <= u122 <= 6.71
5.11 <= u136 <= 6.11
0.00 <= u149 <= 20.00
0.00 <= u207 <= 20.00

0.00 <= r1 <= 20.00
5.59 <= r8 <= 6.59
0.00 <= r16 <= 20.00
0.00 <= r93 <= 20.00
5.70 <= r122 <= 6.70
5.37 <= r136 <= 6.37
0.00 <= r149 <= 20.00
0.00 <= r207 <= 20.00

General
x132x16x1 x132x122x1 x132x149x1 
x101x8x2 x101x16x2 x101x93x2 x101x136x2 x101x207x2 
x123x1x3 x123x8x3 x123x136x3 
x52x1x3 x52x8x3 x52x16x1 x52x122x1 x52x136x3 x52x149x1 
x113x1x3 x113x8x2 x113x8x3 x113x16x2 x113x93x2 x113x136x2 x113x136x3 x113x207x2 
x114x1x3 x114x8x2 x114x8x3 x114x16x2 x114x93x2 x114x136x2 x114x136x3 x114x207x2 
x147x1x3 x147x8x3 x147x16x1 x147x122x1 x147x136x3 x147x149x1 
x18x16x1 x18x122x1 x18x149x1 
x174x8x2 x174x16x2 x174x93x2 x174x136x2 x174x207x2 
x93x16x2 
x136x16x2 
x149x16x1 
x207x8x2 x207x16x2 x207x93x2 

y132y16y1 y132y149y1 
y101y16y2 y101y93y2 y101y207y2 
y123y1y3 
y52y1y3 y52y16y1 y52y149y1 
y113y1y3 y113y16y2 y113y93y2 y113y207y2 
y114y1y3 y114y16y2 y114y93y2 y114y207y2 
y147y1y3 y147y16y1 y147y149y1 
y18y16y1 y18y149y1 
y174y16y2 y174y93y2 y174y207y2 
y8y1y3 y8y16y2 y8y93y2 y8y207y2 
y93y16y2 
y122y16y1 y122y149y1 
y136y1y3 y136y16y2 y136y93y2 y136y207y2 
y149y16y1 
y207y16y2 y207y93y2 

z132z122z1 
z101z8z2 z101z136z2 
z123z8z3 z123z136z3 
z52z8z3 z52z122z1 z52z136z3 
z113z8z2 z113z8z3 z113z136z2 z113z136z3 
z114z8z2 z114z8z3 z114z136z2 z114z136z3 
z147z8z3 z147z122z1 z147z136z3 
z18z122z1 
z174z8z2 z174z136z2 
z1z8z3 z1z136z3 
z16z8z2 z16z122z1 z16z136z2 
z93z8z2 z93z136z2 
z136z8z2 z136z8z3 
z149z122z1 
z207z8z2 z207z136z2 

v132v122v1 
v101v8v2 v101v136v2 
v123v8v3 v123v136v3 
v52v8v3 v52v122v1 v52v136v3 
v113v8v2 v113v8v3 v113v136v2 v113v136v3 
v114v8v2 v114v8v3 v114v136v2 v114v136v3 
v147v8v3 v147v122v1 v147v136v3 
v18v122v1 
v174v8v2 v174v136v2 
v1v8v3 v1v136v3 
v16v8v2 v16v122v1 v16v136v2 
v93v8v2 v93v136v2 
v136v8v2 v136v8v3 
v149v122v1 
v207v8v2 v207v136v2 

Binaries
X1 X8 X16 X93 X122 X136 X149 X207 
Y1 Y16 Y93 Y149 Y207 
Z8 Z122 Z136 
V8 V122 V136 

w1 w8 w16 w93 w122 w136 w149 w207 

a132a16a1 a132a122a1 a132a149a1 
a101a8a2 a101a16a2 a101a93a2 a101a136a2 a101a207a2 
a123a1a3 a123a8a3 a123a136a3 
a52a1a3 a52a8a3 a52a16a1 a52a122a1 a52a136a3 a52a149a1 
a113a1a3 a113a8a2 a113a8a3 a113a16a2 a113a93a2 a113a136a2 a113a136a3 a113a207a2 
a114a1a3 a114a8a2 a114a8a3 a114a16a2 a114a93a2 a114a136a2 a114a136a3 a114a207a2 
a147a1a3 a147a8a3 a147a16a1 a147a122a1 a147a136a3 a147a149a1 
a18a16a1 a18a122a1 a18a149a1 
a174a8a2 a174a16a2 a174a93a2 a174a136a2 a174a207a2 
a93a16a2 
a136a16a2 
a149a16a1 
a207a8a2 a207a16a2 a207a93a2 

b132b16b1 b132b149b1 
b101b16b2 b101b93b2 b101b207b2 
b123b1b3 
b52b1b3 b52b16b1 b52b149b1 
b113b1b3 b113b16b2 b113b93b2 b113b207b2 
b114b1b3 b114b16b2 b114b93b2 b114b207b2 
b147b1b3 b147b16b1 b147b149b1 
b18b16b1 b18b149b1 
b174b16b2 b174b93b2 b174b207b2 
b8b1b3 b8b16b2 b8b93b2 b8b207b2 
b93b16b2 
b122b16b1 b122b149b1 
b136b1b3 b136b16b2 b136b93b2 b136b207b2 
b149b16b1 
b207b16b2 b207b93b2 

c132c122c1 
c101c8c2 c101c136c2 
c123c8c3 c123c136c3 
c52c8c3 c52c122c1 c52c136c3 
c113c8c2 c113c8c3 c113c136c2 c113c136c3 
c114c8c2 c114c8c3 c114c136c2 c114c136c3 
c147c8c3 c147c122c1 c147c136c3 
c18c122c1 
c174c8c2 c174c136c2 
c1c8c3 c1c136c3 
c16c8c2 c16c122c1 c16c136c2 
c93c8c2 c93c136c2 
c136c8c2 c136c8c3 
c149c122c1 
c207c8c2 c207c136c2 

d132d122d1 
d101d8d2 d101d136d2 
d123d8d3 d123d136d3 
d52d8d3 d52d122d1 d52d136d3 
d113d8d2 d113d8d3 d113d136d2 d113d136d3 
d114d8d2 d114d8d3 d114d136d2 d114d136d3 
d147d8d3 d147d122d1 d147d136d3 
d18d122d1 
d174d8d2 d174d136d2 
d1d8d3 d1d136d3 
d16d8d2 d16d122d1 d16d136d2 
d93d8d2 d93d136d2 
d136d8d2 d136d8d3 
d149d122d1 
d207d8d2 d207d136d2 

End